(set-info :status unknown)
(declare-fun %Y () (_ BitVec 5))
(declare-fun %X () (_ BitVec 5))
(assert
 (let (($x19202 (and (distinct (bvurem ((_ zero_extend 43) %X) ((_ zero_extend 43) %Y)) ((_ zero_extend 43) (bvurem %X %Y))) true)))
 (and (and (distinct ((_ zero_extend 43) %Y) (_ bv0 48)) true) $x19202)))
(check-sat)
